7848
1, 22, 31, 18, 3, 17, 21, 42, 7, 2, 30, 23, 20, 50, 44, 34, 35, 36, 39, 40, 37, 38, 48, 24, 5, 15, 6, 4, 25, 46, 16, 29, 47, 26, 28, 27, 13, 14, 52, 11, 12, 51, 33, 43, 10, 9, 8, 41, 19, 45, 32, 49
